3	25
217	918	822	426	830	626	99	733	912	652	48	905	643	83	125	413	819	10	25	846	906	764	35	110	597	
624	940	548	361	329	165	334	430	983	196	241	850	514	276	923	193	409	161	65	61	147	417	969	310	398	
2711	2711	2711	
